100
120
99
98
98
98
97
96
94
92
91
90
90
89
86
84
82
81
81
80
80
79
79
79
77
75
73
72
71
71
71
70
67
65
65
62
61
59
56
55
55
55
55
54
54
53
52
51
50
48
48
48
47
47
46
45
44
43
43
43
43
42
42
40
39
38
38
36
34
30
30
29
27
26
26
24
22
21
21
20
19
18
18
18
15
14
13
11
9
8
7
7
6
6
6
4
4
3
3
2
1
1
